ACTORES = {Actor0, Actor1, Actor2, Actor3, Actor4};
Escenas =[|0,0,0,0,1,0,1,0,0,0,11
		  |0,1,0,0,0,1,1,1,0,0,14
		  |0,0,0,1,1,1,1,0,0,1,9
		  |0,0,0,1,0,1,0,1,1,1,15
		  |0,0,0,1,0,0,0,1,1,1,13
		  |];
Duracion=[2, 4, 4, 4, 1, 2, 3, 2, 1, 1];